c Random 6-CNF over 6 variables and 7 clauses
c Generated with `cnfgen`
c (C) 2012-2019 Massimo Lauria <massimo.lauria@uniroma1.it>
c https://massimolauria.net/cnfgen
c
c COMMAND LINE: cnfgen -v -o rand6_2.cnf randkcnf 6 6 7
c
p cnf 6 7
1 -2 -3 -4 5 -6 0
-1 -2 -3 4 5 -6 0
-1 2 3 4 -5 -6 0
-1 -2 3 -4 5 6 0
1 2 -3 -4 5 -6 0
1 2 -3 -4 5 6 0
1 -2 -3 4 5 -6 0
